<instance format="XCSP3" type="CSP">
  <variables>
    <var id="x0"> 3 5 10 </var>
    <var id="x1"> 3 4 10 17 </var>
    <var id="x2"> 4 10 </var>
    <var id="x3"> 0 5 9 </var>
    <var id="x4"> 0 6 </var>
    <var id="x5"> 0 3 5 9 10 17 </var>
    <var id="x6"> 0 6 10 17 </var>
    <var id="x7"> 0 3 6 17 </var>
    <var id="x8"> 9 15 </var>
    <var id="x9"> 5 8 14 </var>
    <var id="x10"> 5 8 </var>
    <var id="x11"> 0 5 7 9 15 </var>
    <var id="x12"> 0 5 8 15 </var>
    <var id="x13"> 0 11 14 </var>
    <var id="x14"> 0 9 11 14 15 </var>
    <var id="x15"> 0 15 </var>
    <var id="x16"> 1 2 9 13 </var>
    <var id="x17"> 1 3 9 10 16 </var>
    <var id="x18"> 1..3 8 10 </var>
    <var id="x19"> 2 8 10 16 </var>
    <var id="x20"> 3 8..10 </var>
    <var id="x21"> 2 13 16 </var>
    <var id="x22"> 1 3 9 </var>
    <var id="x23"> 1..3 13 </var>
    <var id="x24"> 3 5 10 17 </var>
    <var id="x25"> 5 9 10 17 </var>
    <var id="x26"> 10 13 </var>
    <var id="x27"> 0 5 10 </var>
    <var id="x28"> 0 5 9 13 </var>
    <var as="x5" id="x29"/>
    <var id="x30"> 0 6 10 13 17 </var>
    <var id="x31"> 0 3 9 17 </var>
    <var id="x32"> 12 </var>
    <var id="x33"> 9 11 </var>
    <var id="x34"> 11 13 15 </var>
    <var id="x35"> 0 11 15 </var>
    <var id="x36"> 0 6 15 16 </var>
    <var id="x37"> 0 6 12 13 16 </var>
    <var id="x38"> 0 6 11..13 </var>
    <var id="x39"> 0 9 11 15 </var>
    <var id="x40"> 1 2 9 15 17 </var>
    <var id="x41"> 1 9 10 15 17 </var>
    <var id="x42"> 2 10 </var>
    <var id="x43"> 9 10 17 </var>
    <var id="x44"> 0 1 9 15 </var>
    <var id="x45"> 0 9 10 15 17 </var>
    <var id="x46"> 0..2 15 17 </var>
    <var id="x47"> 1 3 8 10 17 </var>
    <var id="x48"> 8 10 14 17 </var>
    <var id="x49"> 1..3 8 10 15 17 </var>
    <var id="x50"> 8 10 15 </var>
    <var id="x51"> 1 15 </var>
    <var id="x52"> 1 3 10 15 </var>
    <var id="x53"> 1 2 8 </var>
    <var id="x54"> 1..3 15 17 </var>
    <var id="x55"> 1 3 12 15 </var>
    <var id="x56"> 5 11 14 </var>
    <var id="x57"> 0 1 3 15 </var>
    <var id="x58"> 1 3 5 15 </var>
    <var id="x59"> 0 3 5 15 </var>
    <var id="x60"> 0 11 12 14 </var>
    <var id="x61"> 0 5 14 15 </var>
    <var id="x62"> 0 1 3 11 14 15 </var>
    <var id="x63"> 1 10 15..17 </var>
    <var id="x64"> 1 5 10 16 17 </var>
    <var id="x65"> 1 5 10 13 15 </var>
    <var id="x66"> 2 5 10 15 16 </var>
    <var id="x67"> 10 13 17 </var>
    <var id="x68"> 2 5 13 15 16 </var>
    <var id="x69"> 1 15 17 </var>
    <var id="x70"> 1 2 13 15 17 </var>
    <var id="x71"> 1 5 15 17 </var>
    <var as="x63" id="x72"/>
    <var id="x73"> 5 8 10 17 </var>
    <var id="x74"> 0 1 8 10 15 17 </var>
    <var id="x75"> 1 5 10 15 </var>
    <var id="x76"> 0 1 8 16 </var>
    <var id="x77"> 0 5 8 10 15 17 </var>
    <var id="x78"> 0 5 15 16 </var>
    <var id="x79"> 1 2 5 15 17 </var>
    <var id="x80"> 1 4 14 15 17 </var>
    <var id="x81"> 1 2 8 15 17 </var>
    <var id="x82"> 1 4 14 15 </var>
    <var id="x83"> 5 8 15 </var>
    <var id="x84"> 1 4 5 15 </var>
    <var id="x85"> 2 5 8 15 </var>
    <var id="x86"> 5 8 15 17 </var>
    <var id="x87"> 1 3 10 16 17 </var>
    <var id="x88"> 1 3 5 8 10 16 17 </var>
    <var as="x87" id="x89"/>
    <var id="x90"> 5 8 10 17 </var>
    <var as="x47" id="x91"/>
    <var id="x92"> 1 10 </var>
    <var id="x93"> 5 8 10 16 </var>
    <var id="x94"> 6 13 15 </var>
    <var id="x95"> 3 12 15 </var>
    <var id="x96"> 3 12 </var>
    <var id="x97"> 3 14 15 </var>
    <var id="x98"> 0 11 15 </var>
    <var id="x99"> 3 13 15 </var>
    <var id="x100"> 0 6 11..14 </var>
    <var id="x101"> 0 6 13..15 </var>
    <var id="x102"> 3 10 12 15 16 </var>
    <var id="x103"> 4 10 </var>
    <var id="x104"> 7 10 15 </var>
    <var id="x105"> 7 15 16 </var>
    <var id="x106"> 2 10 15 16 </var>
    <var id="x107"> 2 12 16 </var>
    <var id="x108"> 10 12 </var>
    <var id="x109"> 3 15 </var>
    <var id="x110"> 5 6 13 15 </var>
    <var id="x111"> 5 10 12 </var>
    <var id="x112"> 5 10 12 </var>
    <var id="x113"> 4 10 15 </var>
    <var id="x114"> 4 10 11 13 15 </var>
    <var id="x115"> 5 13 15 </var>
    <var id="x116"> 6 12 13 </var>
    <var id="x117"> 5 6 13 15 </var>
    <var id="x118"> 1 5 13 17 </var>
    <var id="x119"> 3 5 10 14 </var>
    <var id="x120"> 1 3 10 14 17 </var>
    <var id="x121"> 0 1 13 </var>
    <var id="x122"> 0 3 5 10 17 </var>
    <var id="x123"> 0 5 13 14 </var>
    <var id="x124"> 0 1 3 14 17 </var>
    <var id="x125"> 0 1 3 13 17 </var>
    <var id="x126"> 1 8 10 16 </var>
    <var id="x127"> 0 1 8 10 15 </var>
    <var id="x128"> 1 10 13 15 </var>
    <var id="x129"> 0 8 10 15 </var>
    <var id="x130"> 0 6 8 10 15 16 </var>
    <var id="x131"> 0 1 6 8 13 16 </var>
    <var id="x132"> 0 6 13 15 16 </var>
    <var id="x133"> 0 1 6 13 15 </var>
    <var id="x134"> 1 2 15 17 </var>
    <var id="x135"> 2 8 14 </var>
    <var id="x136"> 1 14 15 17 </var>
    <var as="x81" id="x137"/>
    <var id="x138"> 1 7 14 15 </var>
    <var id="x139"> 1 7 15 </var>
    <var id="x140"> 1 15 </var>
  </variables>
  <constraints>
    <group>
      <allDifferent> %... </allDifferent>
      <args> x0 x1 x2 x3 x4 x5 x6 x7 </args>
      <args> x8 x9 x10 x11 x12 x13 x14 x15 </args>
      <args> x16 x17 x18 x19 x20 x21 x22 x23 </args>
      <args> x24 x25 x26 x27 x28 x29 x30 x31 </args>
      <args> x32 x33 x34 x35 x36 x37 x38 x39 </args>
      <args> x40 x41 x42 x43 x44 x45 x46 </args>
      <args> x47 x48 x49 x50 x51 x52 x53 x54 </args>
      <args> x55 x56 x57 x58 x59 x60 x61 x62 </args>
      <args> x63 x64 x65 x66 x67 x68 x69 x70 </args>
      <args> x71 x72 x73 x74 x75 x76 x77 x78 </args>
      <args> x79 x80 x81 x82 x83 x84 x85 x86 </args>
      <args> x87 x88 x89 x90 x91 x92 x93 </args>
      <args> x94 x95 x96 x97 x98 x99 x100 x101 </args>
      <args> x102 x103 x104 x105 x106 x107 x108 x109 </args>
      <args> x110 x111 x112 x113 x114 x115 x116 x117 </args>
      <args> x118 x119 x120 x121 x122 x123 x124 x125 </args>
      <args> x126 x127 x128 x129 x130 x131 x132 x133 </args>
      <args> x134 x135 x136 x137 x138 x139 x140 </args>
      <args> x16 x40 x71 x79 x94 x110 x118 x134 </args>
      <args> x8 x17 x41 x55 x63 x87 x95 x102 </args>
      <args> x0 x9 x32 x42 x111 x119 x135 </args>
      <args> x10 x24 x47 x64 x88 x96 x112 x126 </args>
      <args> x1 x72 x80 x89 x97 x113 x120 x136 </args>
      <args> x25 x33 x43 x48 x56 x73 x90 x103 </args>
      <args> x18 x49 x57 x74 x81 x91 x127 x137 </args>
      <args> x2 x26 x34 x82 x92 x114 x128 x138 </args>
      <args> x27 x35 x50 x83 x98 x104 x129 </args>
      <args> x3 x11 x28 x44 x51 x105 x115 x139 </args>
      <args> x52 x58 x65 x75 x84 x99 x140 </args>
      <args> x12 x19 x36 x66 x85 x93 x106 x130 </args>
      <args> x4 x37 x53 x76 x107 x116 x121 x131 </args>
      <args> x5 x20 x29 x45 x59 x77 x86 x122 </args>
      <args> x6 x13 x30 x38 x60 x67 x100 x108 </args>
      <args> x21 x61 x68 x78 x101 x117 x123 x132 </args>
      <args> x14 x22 x31 x39 x62 x69 x109 x124 </args>
      <args> x7 x15 x23 x46 x54 x70 x125 x133 </args>
    </group>
  </constraints>
</instance>

